units                     metal
atom_style                atomic
#boundary                  p s p
read_data                 data.lmp


# -------------------------------- EAM Interatomic Potential ------------------------------------#

neigh_modify              delay   0
pair_style                eam #/alloy
pair_coeff                * * ${PathEam}/Ni_u3.eam

# -------------------------------------- Minimization -------------------------------------------#

#region up block INF INF 115 INF INF INF
#region down block INF INF INF 4 INF INF
#group upp region up
#group downn region down

#fix 1 upp setforce 0.0 0.0 0.0
#fix 2 downn setforce 0.0 0.0 0.0
#velocity upp set 0 0 0
#velocity downn set 0 0 0

#-----------------------------
#--- compute & dump variables
#-----------------------------
compute     1 all stress/atom NULL pair
dump        1 all custom 1 ${OUT_PATH}/DumpFile.xyz id type x y z fx fy fz c_1[1] c_1[2] c_1[3] c_1[4] c_1[5] c_1[6]
dump_modify 1 flush yes format line "%d %d %15.14e %15.14e %15.14e %4.3e %4.3e %4.3e %4.3e %4.3e %4.3e %4.3e %4.3e %4.3e"
run	0
undump		1

# -------------------------------------- Minimization -------------------------------------------#

thermo                    100
minimize 				  0.0 1.0e-8 100000 100000

#-----------------------------
#--- compute & dump variables
#-----------------------------
dump        1 all custom 1 ${OUT_PATH}/DumpFile.xyz id type x y z fx fy fz c_1[1] c_1[2] c_1[3] c_1[4] c_1[5] c_1[6]
dump_modify 1 flush yes append yes format line "%d %d %15.14e %15.14e %15.14e %4.3e %4.3e %4.3e %4.3e %4.3e %4.3e %4.3e %4.3e %4.3e"

run	0
