units                     metal
atom_style                atomic
boundary                  s s p
read_data                 data.txt


# -------------------------------- EAM Interatomic Potential ------------------------------------#

neigh_modify              delay   0
pair_style                eam #/alloy
pair_coeff                * * ${PathEam}/Ni_u3.eam

# -------------------------------------- Minimization -------------------------------------------#

#--- fix buffer zone
variable xxlo	equal xlo+${buff}
variable xxhi	equal xhi-${buff}
variable yylo	equal ylo+${buff}
variable yyhi	equal yhi-${buff}
#
region up block INF INF v_yyhi INF INF INF
region down block INF INF INF v_yylo INF INF
region right block v_xxhi INF INF INF INF INF
region left block INF v_xxlo INF INF INF INF
group upp region up
group downn region down
group lg region left
group rg region right
#
fix 1 upp setforce 0.0 0.0 0.0
fix 2 downn setforce 0.0 0.0 0.0
fix 11 lg setforce 0.0 0.0 0.0
fix 22 rg setforce 0.0 0.0 0.0
velocity upp set 0 0 0
velocity downn set 0 0 0
velocity lg set 0 0 0
velocity rg set 0 0 0

#-----------------------------
#--- compute & dump variables
#-----------------------------
compute     1 all stress/atom NULL pair
dump        1 all custom 1 ${OUT_PATH}/DumpFile.xyz id type x y z fx fy fz c_1[1] c_1[2] c_1[3] c_1[4] c_1[5] c_1[6]
dump_modify 1 flush yes format line "%d %d %15.14e %15.14e %15.14e %4.3e %4.3e %4.3e %4.3e %4.3e %4.3e %4.3e %4.3e %4.3e"
run	0
undump		1

# -------------------------------------- Minimization -------------------------------------------#

thermo                    100
minimize 				  0.0 1.0e-4 100000 100000

#-----------------------------
#--- compute & dump variables
#-----------------------------
dump        1 all custom 1 ${OUT_PATH}/DumpFile.xyz id type x y z fx fy fz c_1[1] c_1[2] c_1[3] c_1[4] c_1[5] c_1[6]
dump_modify 1 flush yes append yes format line "%d %d %15.14e %15.14e %15.14e %4.3e %4.3e %4.3e %4.3e %4.3e %4.3e %4.3e %4.3e %4.3e"

run	0
