units		metal
atom_style      atomic
boundary        p p p

read_data initial.data

#--- get number of atoms
variable	natom	equal	"atoms"
variable	natom2	equal	floor(${natom}/3)
variable	natom3	equal	floor(${natom2})


#group kind1 type 1
#set group kind1 type/subset 2 ${natom2} 12345

#group kind2 type 2
#group remain1 subtract all  kind2 

#set group remain1 type/subset 3 ${natom3} 74
#group kind3 type 3

mass 1 58.693 # Ni
mass 2 58.933195 # Co
mass 3 51.9961 # Cr

write_data data.txt
