units		metal
atom_style      atomic
boundary        p p p

read_data initial.data

group kind1 type 1
set group kind1 type/subset 2 24000 12345

group kind2 type 2
group remain1 subtract all  kind2 

set group remain1 type/subset 3 24000 74
group kind3 type 3

mass 1 58.693 # Ni
mass 2 58.933195 # Co
mass 3 51.9961 # Cr

write_data NiCoCr.dat
